certificates/rado_a11_c34_N21.cnf
c Rad2 upper bound instance: x1 + 11*x2 - x3 = 34, interval [1,21]
p cnf 21 80
1 4 11 0
-1 -4 -11 0
1 2 3 0
-1 -2 -3 0
2 4 12 0
-2 -4 -12 0
2 3 0
-2 -3 0
3 4 13 0
-3 -4 -13 0
3 4 0
-3 -4 0
4 14 0
-4 -14 0
3 4 5 0
-3 -4 -5 0
4 5 15 0
-4 -5 -15 0
3 5 6 0
-3 -5 -6 0
4 6 16 0
-4 -6 -16 0
3 6 7 0
-3 -6 -7 0
4 7 17 0
-4 -7 -17 0
3 7 8 0
-3 -7 -8 0
4 8 18 0
-4 -8 -18 0
3 8 9 0
-3 -8 -9 0
4 9 19 0
-4 -9 -19 0
3 9 10 0
-3 -9 -10 0
4 10 20 0
-4 -10 -20 0
3 10 11 0
-3 -10 -11 0
4 11 21 0
-4 -11 -21 0
3 11 12 0
-3 -11 -12 0
1 2 13 0
-1 -2 -13 0
3 12 13 0
-3 -12 -13 0
2 14 0
-2 -14 0
3 13 14 0
-3 -13 -14 0
2 3 15 0
-2 -3 -15 0
3 14 15 0
-3 -14 -15 0
2 4 16 0
-2 -4 -16 0
3 15 16 0
-3 -15 -16 0
2 5 17 0
-2 -5 -17 0
3 16 17 0
-3 -16 -17 0
2 6 18 0
-2 -6 -18 0
3 17 18 0
-3 -17 -18 0
2 7 19 0
-2 -7 -19 0
3 18 19 0
-3 -18 -19 0
2 8 20 0
-2 -8 -20 0
3 19 20 0
-3 -19 -20 0
2 9 21 0
-2 -9 -21 0
3 20 21 0
-3 -20 -21 0
