certificates/rado_a11_c34_N21.drat
-20 -21 0
d -3 -20 -21 0
10 -21 0
-4 -21 0
-21 0
4 0
-3 0
-14 0
2 0
20 0
15 0
13 0
-8 0
-12 0
-16 0
-10 0
-5 0
-1 0
9 0
7 0
11 0
17 0
6 0
-19 0
0
